Maximize
  9.9393032589648565e-04 Z_253_1_0 + 0.00133016981588795 Z_253_1_1
   + 0.7806093785589276 Z_253_1_2 + 0.00420274850963925 Z_253_1_3
   + 0.1128637727896487 Z_253_1_4 + 1.0732915047419828e-04 Z_260_0_0
   + 0.00248783089031917 Z_260_0_1 + 0.8791804702181281 Z_260_0_2
   + 0.000870208 Z_260_0_3 + 0.0173541617535721 Z_260_0_4
   + 1.145212992016119e-04 Z_370_0_0 + 0.00221501824425197 Z_370_0_1
   + 0.8680568529710493 Z_370_0_2 + 0.00104419739589984 Z_370_0_3
   + 0.0285694100895974 Z_370_0_4 + 6.73675e-05 Z_250_0_0
   + 0.0031886434965062 Z_250_0_1 + 0.8330899121647654 Z_250_0_2
   + 0.000316302 Z_250_0_3 + 0.0633377748834581 Z_250_0_4
   + 1.1369480571460631e-04 Z_34_0_0 + 0.00217943325128753 Z_34_0_1
   + 0.8719310587317337 Z_34_0_2 + 0.00119594983257899 Z_34_0_3
   + 0.0245798633786852 Z_34_0_4 + [
   0.3574043735308782 Z_260_0_0 * Z_34_0_0
   + 0.3574043735308782 Z_260_0_1 * Z_34_0_1
   + 0.3574043735308782 Z_260_0_2 * Z_34_0_2
   + 0.3574043735308782 Z_260_0_3 * Z_34_0_3 ] / 2 
Subject To
 constraint1_2531: Z_253_1_0 + Z_253_1_1 + Z_253_1_2 + Z_253_1_3
   + Z_253_1_4 <= 1
 constraint1_2600: Z_260_0_0 + Z_260_0_1 + Z_260_0_2 + Z_260_0_3
   + Z_260_0_4 <= 1
 constraint1_3700: Z_370_0_0 + Z_370_0_1 + Z_370_0_2 + Z_370_0_3
   + Z_370_0_4 <= 1
 constraint1_2500: Z_250_0_0 + Z_250_0_1 + Z_250_0_2 + Z_250_0_3
   + Z_250_0_4 <= 1
 constraint1_340: Z_34_0_0 + Z_34_0_1 + Z_34_0_2 + Z_34_0_3 + Z_34_0_4
   <= 1
 constraint2_2530: Z_253_1_0 <= 1
 constraint2_2531: Z_253_1_1 <= 1
 constraint2_2532: Z_253_1_2 <= 1
 constraint2_2533: Z_253_1_3 <= 1
 constraint2_5380: <= 1
 constraint2_5381: <= 1
 constraint2_5382: <= 1
 constraint2_5383: <= 1
 constraint2_4850: <= 1
 constraint2_4851: <= 1
 constraint2_4852: <= 1
 constraint2_4853: <= 1
 constraint2_2600: Z_260_0_0 <= 1
 constraint2_2601: Z_260_0_1 <= 1
 constraint2_2602: Z_260_0_2 <= 1
 constraint2_2603: Z_260_0_3 <= 1
 constraint2_3700: Z_370_0_0 <= 1
 constraint2_3701: Z_370_0_1 <= 1
 constraint2_3702: Z_370_0_2 <= 1
 constraint2_3703: Z_370_0_3 <= 1
 constraint2_5540: <= 1
 constraint2_5541: <= 1
 constraint2_5542: <= 1
 constraint2_5543: <= 1
 constraint2_2500: Z_250_0_0 <= 1
 constraint2_2501: Z_250_0_1 <= 1
 constraint2_2502: Z_250_0_2 <= 1
 constraint2_2503: Z_250_0_3 <= 1
 constraint2_340: Z_34_0_0 <= 1
 constraint2_341: Z_34_0_1 <= 1
 constraint2_342: Z_34_0_2 <= 1
 constraint2_343: Z_34_0_3 <= 1
 constraint2_2890: <= 1
 constraint2_2891: <= 1
 constraint2_2892: <= 1
 constraint2_2893: <= 1
 constraint2_3460: <= 1
 constraint2_3461: <= 1
 constraint2_3462: <= 1
 constraint2_3463: <= 1
Bounds
Binaries
 Z_253_1_0 Z_253_1_1 Z_253_1_2 Z_253_1_3 Z_253_1_4 Z_260_0_0 Z_260_0_1
 Z_260_0_2 Z_260_0_3 Z_260_0_4 Z_370_0_0 Z_370_0_1 Z_370_0_2 Z_370_0_3
 Z_370_0_4 Z_250_0_0 Z_250_0_1 Z_250_0_2 Z_250_0_3 Z_250_0_4 Z_34_0_0
 Z_34_0_1 Z_34_0_2 Z_34_0_3 Z_34_0_4
End
